Minimize
x0 + x1 + x2 + x3 + x8 + x9 + x10 + x11 + 
Subject To
\\Clefia S0
\\M_0
x0 + x1 + x2 + x3 + x16 + x17 + x18 + x19 - 5 d0 >= 0
d0 - x0 >= 0
d0 - x1 >= 0
d0 - x2 >= 0
d0 - x3 >= 0
d0 - x16 >= 0
d0 - x17 >= 0
d0 - x18 >= 0
d0 - x19 >= 0
\\XOR
x4 + x16 + x20 - 2 d1 >= 0
d1 - x4 >= 0
d1 - x16 >= 0
d1 - x20 >= 0
\\XOR
x5 + x17 + x21 - 2 d2 >= 0
d2 - x5 >= 0
d2 - x17 >= 0
d2 - x21 >= 0
\\XOR
x6 + x18 + x22 - 2 d3 >= 0
d3 - x6 >= 0
d3 - x18 >= 0
d3 - x22 >= 0
\\XOR
x7 + x19 + x23 - 2 d4 >= 0
d4 - x7 >= 0
d4 - x19 >= 0
d4 - x23 >= 0
\\Clefia S1
\\M_1
x8 + x9 + x10 + x11 + x24 + x25 + x26 + x27 - 5 d5 >= 0
d5 - x8 >= 0
d5 - x9 >= 0
d5 - x10 >= 0
d5 - x11 >= 0
d5 - x24 >= 0
d5 - x25 >= 0
d5 - x26 >= 0
d5 - x27 >= 0
\\XOR
x12 + x24 + x28 - 2 d6 >= 0
d6 - x12 >= 0
d6 - x24 >= 0
d6 - x28 >= 0
\\XOR
x13 + x25 + x29 - 2 d7 >= 0
d7 - x13 >= 0
d7 - x25 >= 0
d7 - x29 >= 0
\\XOR
x14 + x26 + x30 - 2 d8 >= 0
d8 - x14 >= 0
d8 - x26 >= 0
d8 - x30 >= 0
\\XOR
x15 + x27 + x31 - 2 d9 >= 0
d9 - x15 >= 0
d9 - x27 >= 0
d9 - x31 >= 0
\\Identity
\\Identity
\\Identity
\\Identity
\\Identity
\\Identity
\\Identity
\\Identity
\\Identity
\\Identity
\\Identity
\\Identity
\\Identity
\\Identity
\\Identity
\\Identity
\\Identity
\\Identity
\\Identity
\\Identity
\\Identity
\\Identity
\\Identity
\\Identity
\\Identity
\\Identity
\\Identity
\\Identity
\\Identity
\\Identity
\\Identity
\\Identity
x0 + x1 + x2 + x3 + x4 + x5 + x6 + x7 + x8 + x9 + x10 + x11 + x12 + x13 + x14 + x15 >= 1

Binary
d0
d1
d2
d3
d4
d5
d6
d7
d8
d9
x0
x1
x2
x3
x4
x5
x6
x7
x8
x9
x10
x11
x12
x13
x14
x15
x16
x17
x18
x19
x20
x21
x22
x23
x24
x25
x26
x27
x28
x29
x30
x31
End